
nNurses = 144;
hours = 54;
demand = [20 25 3 35 1 4 26 11 23 20 17 18 29 14 27 21 31 3 10 0 1 19 16 6 5 7 32 20 15 20 15 17 2 35 21 26 32 3 2 8 6 7 14 29 21 25 17 33 31 4 24 34 29 19];
minHours = 2;
maxHours = 22;
maxConsec = 7;
maxPresence = 24;